instances/in_50_25_10_4.lp
#const n = 50.
#const k = 25.
#const h = 10.
tile(1,24,3).
tile(2,5,20).
tile(3,15,13).
tile(4,11,14).
tile(5,1,24).
tile(6,22,17).
tile(7,21,1).
tile(8,22,24).
tile(9,25,3).
tile(10,12,8).
tile(11,23,22).
tile(12,15,6).
tile(13,1,19).
tile(14,21,14).
tile(15,22,13).
tile(16,1,16).
tile(17,21,19).
tile(18,25,8).
tile(19,22,22).
tile(20,11,7).
tile(21,3,2).
tile(22,1,10).
tile(23,10,21).
tile(24,20,19).
tile(25,24,22).
tile(26,21,25).
tile(27,1,1).
tile(28,16,5).
tile(29,15,18).
tile(30,24,17).
tile(31,3,9).
tile(32,1,6).
tile(33,10,13).
tile(34,8,10).
tile(35,15,18).
tile(36,2,17).
tile(37,5,11).
tile(38,3,14).
tile(39,22,13).
tile(40,12,15).
tile(41,14,20).
tile(42,8,21).
tile(43,11,25).
tile(44,19,11).
tile(45,24,11).
tile(46,1,16).
tile(47,22,18).
tile(48,9,18).
tile(49,9,23).
tile(50,16,18).
