minizinc/input/in_50_25_10_4.dzn
n = 50;
k = 25;
h = 10;
tiles = array2d(1..n, 1..2,
[ 24,3
, 5,20
, 15,13
, 11,14
, 1,24
, 22,17
, 21,1
, 22,24
, 25,3
, 12,8
, 23,22
, 15,6
, 1,19
, 21,14
, 22,13
, 1,16
, 21,19
, 25,8
, 22,22
, 11,7
, 3,2
, 1,10
, 10,21
, 20,19
, 24,22
, 21,25
, 1,1
, 16,5
, 15,18
, 24,17
, 3,9
, 1,6
, 10,13
, 8,10
, 15,18
, 2,17
, 5,11
, 3,14
, 22,13
, 12,15
, 14,20
, 8,21
, 11,25
, 19,11
, 24,11
, 1,16
, 22,18
, 9,18
, 9,23
, 16,18
]);